IBRION = 0
POTIM = 2.0
NSW = 500

ISIF = 8

TEBEG = 300
# TEEND = 500
SMASS = 0

KSPACING = 1000

ENCUT = 400

WIF_N_CONFIGS_PER_FIT = 4
WIF_CONFIG_INTERVAL = 5
