IBRION = 0
POTIM = 2.0
NSW = 2500

ISIF = 8

TEBEG = 300
TEEND = 1000
SMASS = 0

KSPACING = 1000

ENCUT = 400
