Ni
 1.0000000000000000
     7.0000000000000000    0.0000000000000000    0.0000000000000000
     0.0000000000000000    3.5000000000000000    0.0000000000000000
     0.0000000000000000    0.0000000000000000    3.5000000000000000
 Ni 
   8
Cartesian
  0.0000000000000000  0.0000000000000000  0.0000000000000000
  1.7500000000000000  1.7500000000000000  0.0000000000000000
  1.7500000000000000  0.0000000000000000  1.7500000000000000
  0.0000000000000000  1.7500000000000000  1.7500000000000000
  3.5000000000000000  0.0000000000000000  0.0000000000000000
  5.2500000000000000  1.7500000000000000  0.0000000000000000
  5.2500000000000000  0.0000000000000000  1.7500000000000000
  3.5000000000000000  1.7500000000000000  1.7500000000000000
