IBRION = 0
POTIM = 1.5
NSW = 10

ISIF = 8

TEBEG = 300 500
TEEND = 400 _NONE_
SMASS = 0

PSTRESS = 1.0 2.0

KSPACING = 1000

ENCUT = 400

WIF_N_CONFIGS_PER_FIT = 4
WIF_CONFIG_INTERVAL = 5
